; SWAP1 DUP2 ADD SWAP1 PUSH cw_1 SWAP2 => PUSH cw_1 SWAP2 DUP2 ADD
(set-option :produce-proofs true)
; 
(set-info :status unknown)
(declare-fun storage_t ((_ BitVec 256) (_ BitVec 256) (_ BitVec 256) Int (_ BitVec 256)) (_ BitVec 256))
(declare-fun w_1 () (_ BitVec 256))
(declare-fun storage_s ((_ BitVec 256) (_ BitVec 256) (_ BitVec 256) Int (_ BitVec 256)) (_ BitVec 256))
(declare-fun exc_halt_t (Int) Bool)
(declare-fun exc_halt_s (Int) Bool)
(declare-fun sc_t (Int) (_ BitVec 6))
(declare-fun stack_t ((_ BitVec 256) (_ BitVec 256) (_ BitVec 256) Int (_ BitVec 6)) (_ BitVec 256))
(declare-fun stack_s ((_ BitVec 256) (_ BitVec 256) (_ BitVec 256) Int (_ BitVec 6)) (_ BitVec 256))
(declare-fun sc_s (Int) (_ BitVec 6))
(declare-fun used_gas_t ((_ BitVec 256) (_ BitVec 256) (_ BitVec 256) Int) Int)
(declare-fun used_gas_s ((_ BitVec 256) (_ BitVec 256) (_ BitVec 256) Int) Int)
(assert
 (exists ((x_0 (_ BitVec 256)) (x_1 (_ BitVec 256)) )(let (($x3332 (forall ((w (_ BitVec 256)) )(let ((?x3446 (storage_t x_0 x_1 w_1 4 w)))
 (let ((?x5966 (storage_s x_0 x_1 w_1 6 w)))
 (= ?x5966 ?x3446))))
 ))
 (let (($x3723 (exc_halt_t 4)))
 (let (($x772 (exc_halt_s 6)))
 (let (($x9929 (= $x772 $x3723)))
 (let (($x6342 (forall ((n (_ BitVec 6)) )(let ((?x3757 (sc_t 4)))
 (let (($x9177 (bvsle ?x3757 n)))
 (let ((?x9198 (stack_t x_0 x_1 w_1 4 n)))
 (let ((?x5420 (stack_s x_0 x_1 w_1 6 n)))
 (let (($x5867 (= ?x5420 ?x9198)))
 (or $x5867 $x9177)))))))
 ))
 (let ((?x3757 (sc_t 4)))
 (let ((?x926 (sc_s 6)))
 (let (($x1568 (= ?x926 ?x3757)))
 (let ((?x9897 (used_gas_t x_0 x_1 w_1 0)))
 (let ((?x5258 (used_gas_s x_0 x_1 w_1 0)))
 (let (($x4278 (= ?x5258 ?x9897)))
 (let (($x10683 (forall ((w (_ BitVec 256)) )(let ((?x10203 (storage_t x_0 x_1 w_1 0 w)))
 (let ((?x9008 (storage_s x_0 x_1 w_1 0 w)))
 (= ?x9008 ?x10203))))
 ))
 (let (($x56 (exc_halt_t 0)))
 (let (($x57 (exc_halt_s 0)))
 (let (($x58 (= $x57 $x56)))
 (let (($x1687 (forall ((n (_ BitVec 6)) )(let ((?x3010 (stack_t x_0 x_1 w_1 0 n)))
 (let ((?x10354 (stack_s x_0 x_1 w_1 0 n)))
 (let (($x5123 (= ?x10354 ?x3010)))
 (let ((?x63 (sc_t 0)))
 (let (($x4861 (bvsle ?x63 n)))
 (or $x4861 $x5123)))))))
 ))
 (let ((?x63 (sc_t 0)))
 (let ((?x72 (sc_s 0)))
 (let (($x73 (= ?x72 ?x63)))
 (let (($x2148 (= $x3723 (or (exc_halt_t 3) (not (bvsle (_ bv0 6) (bvadd (_ bv62 6) (sc_t 3))))))))
 (let (($x6549 (forall ((w (_ BitVec 256)) )(let ((?x10094 (storage_t x_0 x_1 w_1 3 w)))
 (let ((?x3446 (storage_t x_0 x_1 w_1 4 w)))
 (= ?x3446 ?x10094))))
 ))
 (let (($x26 (forall ((n (_ BitVec 6)) )(let ((?x9893 (sc_t 3)))
 (let ((?x11722 (bvadd (_ bv62 6) ?x9893)))
 (let (($x10077 (bvsle ?x11722 n)))
 (let ((?x10067 (stack_t x_0 x_1 w_1 3 n)))
 (let ((?x9198 (stack_t x_0 x_1 w_1 4 n)))
 (or (= ?x9198 ?x10067) $x10077)))))))
 ))
 (let ((?x9893 (sc_t 3)))
 (let ((?x9862 (bvadd (_ bv63 6) ?x9893)))
 (let (($x1435 (= ?x3757 ?x9862)))
 (let (($x6744 (= (used_gas_t x_0 x_1 w_1 4) (+ 3 (used_gas_t x_0 x_1 w_1 3)))))
 (let ((?x3121 (stack_t x_0 x_1 w_1 3 ?x9862)))
 (let (($x2773 (= (stack_t x_0 x_1 w_1 4 (bvadd (_ bv63 6) ?x3757)) (bvadd ?x3121 (stack_t x_0 x_1 w_1 3 (bvadd (_ bv62 6) ?x9893))))))
 (let (($x10960 (not (bvsle (_ bv0 6) (bvadd (_ bv62 6) (sc_t 2))))))
 (let (($x9517 (not (= ((_ extract 6 6) (bvadd (_ bv1 7) (concat (_ bv0 1) (sc_t 2)))) (_ bv0 1)))))
 (let (($x903 (exc_halt_t 2)))
 (let (($x3892 (exc_halt_t 3)))
 (let (($x3020 (forall ((w (_ BitVec 256)) )(let ((?x2193 (storage_t x_0 x_1 w_1 2 w)))
 (let ((?x10094 (storage_t x_0 x_1 w_1 3 w)))
 (= ?x10094 ?x2193))))
 ))
 (let (($x6406 (forall ((n (_ BitVec 6)) )(let ((?x4056 (sc_t 2)))
 (let ((?x7917 (bvadd (_ bv62 6) ?x4056)))
 (let (($x8862 (bvsle ?x7917 n)))
 (let ((?x6217 (stack_t x_0 x_1 w_1 2 n)))
 (let ((?x10067 (stack_t x_0 x_1 w_1 3 n)))
 (or (= ?x10067 ?x6217) $x8862)))))))
 ))
 (let (($x7792 (= ?x9893 (bvadd (_ bv1 6) (sc_t 2)))))
 (let ((?x10234 (used_gas_t x_0 x_1 w_1 3)))
 (let ((?x4056 (sc_t 2)))
 (let ((?x4363 (bvadd (_ bv63 6) ?x4056)))
 (let ((?x2995 (stack_t x_0 x_1 w_1 2 ?x4363)))
 (let ((?x7917 (bvadd (_ bv62 6) ?x4056)))
 (let ((?x2051 (stack_t x_0 x_1 w_1 2 ?x7917)))
 (let (($x7564 (= $x903 (or (exc_halt_t 1) (not (bvsle (_ bv0 6) (bvadd (_ bv61 6) (sc_t 1))))))))
 (let (($x5827 (forall ((w (_ BitVec 256)) )(let ((?x6946 (storage_t x_0 x_1 w_1 1 w)))
 (let ((?x2193 (storage_t x_0 x_1 w_1 2 w)))
 (= ?x2193 ?x6946))))
 ))
 (let (($x7969 (forall ((n (_ BitVec 6)) )(let ((?x472 (stack_t x_0 x_1 w_1 1 n)))
 (let ((?x6217 (stack_t x_0 x_1 w_1 2 n)))
 (or (bvsle (bvadd (_ bv61 6) (sc_t 1)) n) (= ?x6217 ?x472)))))
 ))
 (let ((?x4023 (sc_t 1)))
 (let (($x1388 (= ?x4056 ?x4023)))
 (let ((?x6788 (used_gas_t x_0 x_1 w_1 2)))
 (let (($x5218 (= (stack_t x_0 x_1 w_1 2 (bvadd (_ bv61 6) ?x4056)) (stack_t x_0 x_1 w_1 1 (bvadd (_ bv63 6) ?x4023)))))
 (let (($x1920 (exc_halt_t 1)))
 (let (($x7107 (= $x1920 (or $x56 (not (= ((_ extract 6 6) (bvadd (_ bv1 7) (concat (_ bv0 1) ?x63))) (_ bv0 1)))))))
 (let (($x3169 (forall ((w (_ BitVec 256)) )(let ((?x10203 (storage_t x_0 x_1 w_1 0 w)))
 (let ((?x6946 (storage_t x_0 x_1 w_1 1 w)))
 (= ?x6946 ?x10203))))
 ))
 (let (($x11806 (forall ((n (_ BitVec 6)) )(let ((?x3010 (stack_t x_0 x_1 w_1 0 n)))
 (let ((?x472 (stack_t x_0 x_1 w_1 1 n)))
 (let ((?x63 (sc_t 0)))
 (let (($x4861 (bvsle ?x63 n)))
 (or $x4861 (= ?x472 ?x3010)))))))
 ))
 (let (($x7726 (= ?x4023 (bvadd (_ bv1 6) ?x63))))
 (let (($x1499 (= $x772 (or (exc_halt_s 5) (not (bvsle (_ bv0 6) (bvadd (_ bv61 6) (sc_s 5))))))))
 (let (($x419 (forall ((w (_ BitVec 256)) )(let ((?x3850 (storage_s x_0 x_1 w_1 5 w)))
 (let ((?x5966 (storage_s x_0 x_1 w_1 6 w)))
 (= ?x5966 ?x3850))))
 ))
 (let (($x8818 (forall ((n (_ BitVec 6)) )(let ((?x805 (sc_s 5)))
 (let ((?x5497 (bvadd (_ bv61 6) ?x805)))
 (let (($x8207 (bvsle ?x5497 n)))
 (let ((?x10572 (stack_s x_0 x_1 w_1 5 n)))
 (let ((?x5420 (stack_s x_0 x_1 w_1 6 n)))
 (or (= ?x5420 ?x10572) $x8207)))))))
 ))
 (let ((?x805 (sc_s 5)))
 (let (($x1933 (= ?x926 ?x805)))
 (let (($x9505 (= (used_gas_s x_0 x_1 w_1 6) (+ 3 (used_gas_s x_0 x_1 w_1 5)))))
 (let (($x2416 (= (stack_s x_0 x_1 w_1 6 (bvadd (_ bv62 6) ?x926)) (stack_s x_0 x_1 w_1 5 (bvadd (_ bv62 6) ?x805)))))
 (let (($x6598 (= (stack_s x_0 x_1 w_1 6 (bvadd (_ bv61 6) ?x926)) (stack_s x_0 x_1 w_1 5 (bvadd (_ bv63 6) ?x805)))))
 (let (($x7909 (= (stack_s x_0 x_1 w_1 6 (bvadd (_ bv63 6) ?x926)) (stack_s x_0 x_1 w_1 5 (bvadd (_ bv61 6) ?x805)))))
 (let (($x8120 (not (= ((_ extract 6 6) (bvadd (_ bv1 7) (concat (_ bv0 1) (sc_s 4)))) (_ bv0 1)))))
 (let (($x64 (exc_halt_s 4)))
 (let (($x3979 (exc_halt_s 5)))
 (let (($x6899 (forall ((w (_ BitVec 256)) )(let ((?x9633 (storage_s x_0 x_1 w_1 4 w)))
 (let ((?x3850 (storage_s x_0 x_1 w_1 5 w)))
 (= ?x3850 ?x9633))))
 ))
 (let (($x6893 (forall ((n (_ BitVec 6)) )(let ((?x6289 (stack_s x_0 x_1 w_1 4 n)))
 (let ((?x10572 (stack_s x_0 x_1 w_1 5 n)))
 (or (bvsle (sc_s 4) n) (= ?x10572 ?x6289)))))
 ))
 (let (($x8155 (= ?x805 (bvadd (_ bv1 6) (sc_s 4)))))
 (let ((?x9059 (used_gas_s x_0 x_1 w_1 5)))
 (let (($x4829 (= $x64 (or (exc_halt_s 3) (not (bvsle (_ bv0 6) (bvadd (_ bv62 6) (sc_s 3))))))))
 (let (($x8758 (forall ((w (_ BitVec 256)) )(let ((?x1936 (storage_s x_0 x_1 w_1 3 w)))
 (let ((?x9633 (storage_s x_0 x_1 w_1 4 w)))
 (= ?x9633 ?x1936))))
 ))
 (let (($x1878 (forall ((n (_ BitVec 6)) )(let ((?x275 (sc_s 3)))
 (let ((?x9858 (bvadd (_ bv62 6) ?x275)))
 (let (($x10835 (bvsle ?x9858 n)))
 (let ((?x10029 (stack_s x_0 x_1 w_1 3 n)))
 (let ((?x6289 (stack_s x_0 x_1 w_1 4 n)))
 (or (= ?x6289 ?x10029) $x10835)))))))
 ))
 (let ((?x275 (sc_s 3)))
 (let ((?x4305 (sc_s 4)))
 (let (($x8104 (= ?x4305 ?x275)))
 (let ((?x9258 (used_gas_s x_0 x_1 w_1 4)))
 (let ((?x7846 (bvadd (_ bv63 6) ?x275)))
 (let ((?x5445 (stack_s x_0 x_1 w_1 3 ?x7846)))
 (let (($x3213 (= (stack_s x_0 x_1 w_1 4 (bvadd (_ bv63 6) ?x4305)) (stack_s x_0 x_1 w_1 3 (bvadd (_ bv62 6) ?x275)))))
 (let (($x292 (exc_halt_s 3)))
 (let (($x7717 (= $x292 (or (exc_halt_s 2) (not (bvsle (_ bv0 6) (bvadd (_ bv62 6) (sc_s 2))))))))
 (let (($x8165 (forall ((w (_ BitVec 256)) )(let ((?x9726 (storage_s x_0 x_1 w_1 2 w)))
 (let ((?x1936 (storage_s x_0 x_1 w_1 3 w)))
 (= ?x1936 ?x9726))))
 ))
 (let (($x4777 (forall ((n (_ BitVec 6)) )(let ((?x8315 (stack_s x_0 x_1 w_1 2 n)))
 (let ((?x10029 (stack_s x_0 x_1 w_1 3 n)))
 (let ((?x218 (sc_s 2)))
 (let ((?x4288 (bvadd (_ bv62 6) ?x218)))
 (let (($x769 (bvsle ?x4288 n)))
 (or $x769 (= ?x10029 ?x8315))))))))
 ))
 (let ((?x3557 (used_gas_s x_0 x_1 w_1 3)))
 (let ((?x218 (sc_s 2)))
 (let ((?x9274 (bvadd (_ bv63 6) ?x218)))
 (let ((?x6143 (stack_s x_0 x_1 w_1 2 ?x9274)))
 (let (($x7568 (= ?x5445 (bvadd ?x6143 (stack_s x_0 x_1 w_1 2 (bvadd (_ bv62 6) ?x218))))))
 (let (($x7217 (not (bvsle (_ bv0 6) (bvadd (_ bv62 6) (sc_s 1))))))
 (let (($x1208 (not (= ((_ extract 6 6) (bvadd (_ bv1 7) (concat (_ bv0 1) (sc_s 1)))) (_ bv0 1)))))
 (let (($x189 (exc_halt_s 1)))
 (let (($x247 (exc_halt_s 2)))
 (let (($x7739 (forall ((w (_ BitVec 256)) )(let ((?x5520 (storage_s x_0 x_1 w_1 1 w)))
 (let ((?x9726 (storage_s x_0 x_1 w_1 2 w)))
 (= ?x9726 ?x5520))))
 ))
 (let (($x9709 (forall ((n (_ BitVec 6)) )(let ((?x154 (sc_s 1)))
 (let ((?x11305 (bvadd (_ bv62 6) ?x154)))
 (let (($x9046 (bvsle ?x11305 n)))
 (let ((?x6283 (stack_s x_0 x_1 w_1 1 n)))
 (let ((?x8315 (stack_s x_0 x_1 w_1 2 n)))
 (or (= ?x8315 ?x6283) $x9046)))))))
 ))
 (let (($x1199 (= ?x218 (bvadd (_ bv1 6) (sc_s 1)))))
 (let ((?x2979 (used_gas_s x_0 x_1 w_1 2)))
 (let ((?x154 (sc_s 1)))
 (let ((?x2046 (bvadd (_ bv63 6) ?x154)))
 (let ((?x2733 (stack_s x_0 x_1 w_1 1 ?x2046)))
 (let ((?x11305 (bvadd (_ bv62 6) ?x154)))
 (let ((?x2318 (stack_s x_0 x_1 w_1 1 ?x11305)))
 (let (($x3416 (= $x189 (or $x57 (not (bvsle (_ bv0 6) (bvadd (_ bv62 6) ?x72)))))))
 (let (($x3927 (forall ((w (_ BitVec 256)) )(let ((?x9008 (storage_s x_0 x_1 w_1 0 w)))
 (let ((?x5520 (storage_s x_0 x_1 w_1 1 w)))
 (= ?x5520 ?x9008))))
 ))
 (let (($x180 (forall ((n (_ BitVec 6)) )(let ((?x72 (sc_s 0)))
 (let ((?x7740 (bvadd (_ bv62 6) ?x72)))
 (let (($x10958 (bvsle ?x7740 n)))
 (let ((?x10354 (stack_s x_0 x_1 w_1 0 n)))
 (let ((?x6283 (stack_s x_0 x_1 w_1 1 n)))
 (or (= ?x6283 ?x10354) $x10958)))))))
 ))
 (let (($x1273 (= ?x154 ?x72)))
 (let (($x10799 (forall ((w (_ BitVec 256)) )(let ((?x9008 (storage_s x_0 x_1 w_1 0 w)))
 (= ?x9008 (_ bv0 256))))
 ))
 (let (($x9265 (= ?x5258 0)))
 (let (($x5326 (not $x57)))
 (let (($x6191 (= (stack_s x_0 x_1 w_1 0 (_ bv1 6)) x_1)))
 (let (($x6087 (= (stack_s x_0 x_1 w_1 0 (_ bv0 6)) x_0)))
 (let (($x9078 (= ?x72 (_ bv2 6))))
 (and $x9078 $x6087 $x6191 $x5326 $x9265 $x10799 (= ?x2733 (stack_s x_0 x_1 w_1 0 (bvadd (_ bv62 6) ?x72))) (= ?x2318 (stack_s x_0 x_1 w_1 0 (bvadd (_ bv63 6) ?x72))) (= (used_gas_s x_0 x_1 w_1 1) (+ 3 ?x5258)) $x1273 $x180 $x3927 $x3416 (= ?x6143 ?x2318) (= (stack_s x_0 x_1 w_1 2 ?x11305) ?x2318) (= (stack_s x_0 x_1 w_1 2 ?x2046) ?x2733) (= ?x2979 (+ 3 (used_gas_s x_0 x_1 w_1 1))) $x1199 $x9709 $x7739 (= $x247 (or $x189 $x1208 $x7217)) $x7568 (= ?x3557 (+ 3 ?x2979)) (= ?x275 ?x9274) $x4777 $x8165 $x7717 $x3213 (= (stack_s x_0 x_1 w_1 4 (bvadd (_ bv62 6) ?x4305)) ?x5445) (= ?x9258 (+ 3 ?x3557)) $x8104 $x1878 $x8758 $x4829 (= (stack_s x_0 x_1 w_1 5 ?x4305) w_1) (= ?x9059 (+ 3 ?x9258)) $x8155 $x6893 $x6899 (= $x3979 (or $x64 $x8120)) $x7909 $x6598 $x2416 $x9505 $x1933 $x8818 $x419 $x1499 (= (stack_t x_0 x_1 w_1 1 ?x63) w_1) (= (used_gas_t x_0 x_1 w_1 1) (+ 3 ?x9897)) $x7726 $x11806 $x3169 $x7107 (= ?x2995 (stack_t x_0 x_1 w_1 1 (bvadd (_ bv61 6) ?x4023))) $x5218 (= ?x2051 (stack_t x_0 x_1 w_1 1 (bvadd (_ bv62 6) ?x4023))) (= ?x6788 (+ 3 (used_gas_t x_0 x_1 w_1 1))) $x1388 $x7969 $x5827 $x7564 (= ?x3121 ?x2051) (= (stack_t x_0 x_1 w_1 3 ?x7917) ?x2051) (= (stack_t x_0 x_1 w_1 3 ?x4363) ?x2995) (= ?x10234 (+ 3 ?x6788)) $x7792 $x6406 $x3020 (= $x3892 (or $x903 $x9517 $x10960)) $x2773 $x6744 $x1435 $x26 $x6549 $x2148 $x73 $x1687 $x58 $x10683 $x4278 (not (and $x1568 $x6342 $x9929 $x3332)))))))))))))))))))))))))))))))))))))))))))))))))))))))))))))))))))))))))))))))))))))))))))))))))))))))))))))))))))
 )
(check-sat)
(get-proof)
